ampl/dakota.sol
Problem:    dakota
Rows:       5
Columns:    3
Non-zeros:  13
Status:     OPTIMAL
Objective:  z = 280 (MAXimum)

   No.   Row name   St   Activity     Lower bound   Upper bound    Marginal
------ ------------ -- ------------- ------------- ------------- -------------
     1 z            B            280                             
     2 Lumber       B             24                          48 
     3 Finishing    NU            20                          20            10 
     4 Carpentry    NU             8                           8            10 
     5 Demand       B              0                          40 

   No. Column name  St   Activity     Lower bound   Upper bound    Marginal
------ ------------ -- ------------- ------------- ------------- -------------
     1 x1           B              2             0               
     2 x2           NL             0             0                          -5 
     3 x3           B              8             0               

Karush-Kuhn-Tucker optimality conditions:

KKT.PE: max.abs.err = 0.00e+00 on row 0
        max.rel.err = 0.00e+00 on row 0
        High quality

KKT.PB: max.abs.err = 0.00e+00 on row 0
        max.rel.err = 0.00e+00 on row 0
        High quality

KKT.DE: max.abs.err = 0.00e+00 on column 0
        max.rel.err = 0.00e+00 on column 0
        High quality

KKT.DB: max.abs.err = 0.00e+00 on row 0
        max.rel.err = 0.00e+00 on row 0
        High quality

End of output
